************************************************************************
file with basedata            : mm27_.bas
initial value random generator: 1731519007
************************************************************************
projects                      :  1
jobs (incl. supersource/sink ):  12
horizon                       :  88
RESOURCES
  - renewable                 :  2   R
  - nonrenewable              :  2   N
  - doubly constrained        :  0   D
************************************************************************
PROJECT INFORMATION:
pronr.  #jobs rel.date duedate tardcost  MPM-Time
    1     10      0       16        1       16
************************************************************************
PRECEDENCE RELATIONS:
jobnr.    #modes  #successors   successors
   0        1          3           1   2   3
   1        3          2           8   9
   2        3          2           8  10
   3        3          3           4   7   8
   4        3          2           5   6
   5        3          1           9
   6        3          1          10
   7        3          1          10
   8        3          1          11
   9        3          1          11
  10        3          1          11
  11        1          0        
************************************************************************
REQUESTS/DURATIONS:
jobnr. mode duration  R 1  R 2  R 3  R 4  E(W 1)  E(W 2)  E(W 3)
------------------------------------------------------------------------
  0      1     0       0    0    0    0     0       0       0
  1      1     1       0    3    0    5     3       0       5
  2      1     5       4    0    9    0    20      45       0
  3      1     1       0    5    0    9     5       0       9
  4      1     8       0    7    3    0    56      24       0
  5      1     1       5    0    0    6     5       0       6
  6      1     3       0    5    8    0    15      24       0
  7      1     7       5    0    7    0    35      49       0
  8      1     3       9    0   10    0    27      30       0
  9      1     4       3    0    0    8    12       0      32
 10      1     4       4    0    0    8    16       0      32
 11      1     0       0    0    0    0     0       0       0
************************************************************************
RESOURCEAVAILABILITIES:
  R 1  R 2  R 3
   45   43   29
************************************************************************
RESOURCE LIMITS:
jobnr.  l(R 1)  u(R 1)  l(R 2)  u(R 2)  l(R 3)  u(R 3)
------------------------------------------------------------------------
  0        0       0       0       0       0       0
  1        2       3       0       0       3       5
  2        2       4       5       9       0       0
  3        3       5       0       0       5       9
  4        4       7       2       3       0       0
  5        3       5       0       0       3       6
  6        3       5       4       8       0       0
  7        3       5       4       7       0       0
  8        5       9       5      10       0       0
  9        2       3       0       0       4       8
 10        2       4       0       0       4       8
 11        0       0       0       0       0       0
************************************************************************
SCENARIOS:
------------------------------------------------------------------------
RESOURCE k = 1
s = 1: (0, 4, 19, 5, 61, 6, 20, 43, 28, 11, 10, 0)
s = 2: (0, 4, 18, 5, 47, 5, 20, 28, 28, 11, 13, 0)
s = 3: (0, 4, 30, 4, 38, 5, 11, 31, 26, 16, 18, 0)
s = 4: (0, 4, 20, 8, 51, 5, 15, 38, 23, 7, 21, 0)
s = 5: (0, 4, 29, 6, 73, 8, 9, 29, 24, 21, 11, 0)
s = 6: (0, 2, 14, 6, 41, 4, 26, 24, 26, 10, 17, 0)
s = 7: (0, 3, 19, 7, 69, 6, 15, 58, 25, 20, 24, 0)
s = 8: (0, 3, 15, 4, 41, 9, 10, 31, 18, 15, 19, 0)
s = 9: (0, 4, 18, 4, 44, 4, 14, 24, 33, 12, 22, 0)
s = 10: (0, 4, 18, 6, 83, 6, 13, 34, 17, 16, 15, 0)
s = 11: (0, 4, 23, 4, 72, 9, 13, 34, 39, 10, 21, 0)
s = 12: (0, 4, 15, 5, 37, 6, 15, 41, 30, 12, 17, 0)
s = 13: (0, 3, 19, 7, 49, 8, 14, 37, 25, 12, 25, 0)
s = 14: (0, 4, 16, 7, 60, 5, 13, 52, 34, 8, 11, 0)
s = 15: (0, 4, 16, 6, 63, 5, 15, 21, 34, 14, 14, 0)
s = 16: (0, 4, 25, 9, 86, 5, 10, 28, 30, 12, 27, 0)
s = 17: (0, 4, 12, 4, 80, 7, 13, 21, 28, 17, 24, 0)
s = 18: (0, 5, 14, 6, 69, 6, 14, 28, 24, 7, 19, 0)
s = 19: (0, 4, 26, 5, 54, 6, 11, 41, 16, 20, 18, 0)
s = 20: (0, 3, 24, 6, 41, 8, 11, 31, 24, 8, 20, 0)
s = 21: (0, 2, 12, 5, 73, 5, 24, 43, 27, 13, 13, 0)
s = 22: (0, 5, 15, 8, 48, 6, 12, 29, 34, 11, 17, 0)
s = 23: (0, 4, 20, 5, 38, 5, 18, 32, 22, 12, 15, 0)
s = 24: (0, 3, 15, 6, 66, 6, 12, 45, 25, 12, 13, 0)
s = 25: (0, 3, 17, 7, 44, 5, 12, 44, 19, 8, 21, 0)
s = 26: (0, 3, 14, 5, 81, 5, 23, 25, 26, 11, 17, 0)
s = 27: (0, 4, 17, 5, 57, 4, 16, 29, 26, 18, 22, 0)
s = 28: (0, 4, 24, 6, 35, 7, 10, 37, 25, 9, 21, 0)
s = 29: (0, 4, 29, 5, 37, 4, 12, 40, 19, 9, 21, 0)
s = 30: (0, 3, 18, 7, 31, 7, 18, 54, 25, 19, 11, 0)
s = 31: (0, 4, 24, 8, 75, 4, 12, 43, 15, 12, 17, 0)
s = 32: (0, 4, 14, 6, 70, 5, 13, 36, 22, 13, 16, 0)
s = 33: (0, 3, 15, 8, 45, 4, 9, 44, 27, 11, 17, 0)
s = 34: (0, 3, 29, 4, 70, 5, 18, 35, 22, 15, 20, 0)
s = 35: (0, 3, 16, 4, 47, 7, 20, 32, 35, 14, 9, 0)
s = 36: (0, 3, 19, 4, 66, 6, 10, 42, 30, 14, 12, 0)
s = 37: (0, 5, 11, 5, 46, 7, 14, 32, 27, 8, 12, 0)
s = 38: (0, 2, 22, 8, 30, 6, 13, 32, 19, 12, 26, 0)
s = 39: (0, 3, 19, 10, 45, 4, 12, 32, 21, 14, 20, 0)
s = 40: (0, 3, 12, 3, 77, 5, 20, 23, 30, 12, 14, 0)
s = 41: (0, 3, 27, 6, 43, 7, 14, 39, 26, 10, 16, 0)
s = 42: (0, 3, 13, 6, 43, 5, 13, 47, 17, 8, 17, 0)
s = 43: (0, 3, 12, 4, 31, 7, 13, 28, 25, 10, 20, 0)
s = 44: (0, 3, 21, 6, 49, 6, 12, 39, 18, 12, 25, 0)
s = 45: (0, 4, 14, 5, 53, 5, 14, 51, 21, 14, 24, 0)
s = 46: (0, 3, 15, 5, 40, 4, 19, 44, 26, 11, 17, 0)
s = 47: (0, 5, 13, 4, 48, 7, 13, 35, 19, 12, 11, 0)
s = 48: (0, 3, 17, 4, 47, 7, 17, 29, 34, 12, 24, 0)
s = 49: (0, 3, 20, 6, 38, 7, 18, 40, 21, 16, 17, 0)
s = 50: (0, 5, 16, 5, 52, 5, 20, 29, 24, 14, 9, 0)
s = 51: (0, 3, 22, 6, 36, 6, 13, 28, 29, 14, 20, 0)
s = 52: (0, 3, 16, 5, 68, 8, 22, 43, 21, 10, 9, 0)
s = 53: (0, 6, 19, 7, 84, 7, 18, 43, 31, 9, 14, 0)
s = 54: (0, 2, 11, 4, 72, 5, 15, 39, 24, 9, 16, 0)
s = 55: (0, 3, 29, 7, 53, 4, 16, 46, 28, 8, 19, 0)
s = 56: (0, 4, 29, 5, 64, 6, 16, 39, 17, 11, 14, 0)
s = 57: (0, 3, 32, 5, 57, 5, 9, 40, 36, 18, 14, 0)
s = 58: (0, 3, 29, 6, 62, 4, 22, 23, 22, 13, 26, 0)
s = 59: (0, 3, 33, 4, 52, 5, 23, 37, 33, 13, 17, 0)
s = 60: (0, 3, 36, 5, 57, 5, 14, 48, 28, 13, 16, 0)
s = 61: (0, 2, 14, 5, 65, 4, 15, 29, 23, 13, 16, 0)
s = 62: (0, 3, 22, 3, 62, 4, 24, 31, 33, 21, 12, 0)
s = 63: (0, 3, 20, 7, 47, 6, 26, 41, 19, 12, 13, 0)
s = 64: (0, 3, 26, 6, 75, 6, 11, 31, 22, 12, 15, 0)
s = 65: (0, 3, 19, 7, 46, 4, 22, 43, 28, 9, 10, 0)
s = 66: (0, 2, 20, 5, 46, 4, 13, 33, 28, 20, 14, 0)
s = 67: (0, 3, 22, 7, 42, 4, 14, 32, 32, 8, 23, 0)
s = 68: (0, 3, 18, 7, 68, 7, 10, 20, 23, 9, 18, 0)
s = 69: (0, 3, 20, 5, 69, 3, 14, 40, 24, 10, 17, 0)
s = 70: (0, 3, 36, 6, 53, 4, 12, 34, 29, 12, 11, 0)
s = 71: (0, 3, 16, 8, 64, 6, 21, 37, 28, 13, 12, 0)
s = 72: (0, 4, 17, 8, 38, 4, 20, 22, 27, 9, 20, 0)
s = 73: (0, 3, 15, 4, 65, 6, 17, 42, 29, 13, 20, 0)
s = 74: (0, 4, 14, 7, 53, 3, 9, 40, 38, 13, 10, 0)
s = 75: (0, 3, 29, 4, 94, 5, 16, 32, 17, 19, 16, 0)
s = 76: (0, 4, 13, 5, 45, 6, 17, 33, 24, 12, 19, 0)
s = 77: (0, 3, 22, 5, 47, 8, 18, 35, 21, 10, 24, 0)
s = 78: (0, 3, 20, 5, 47, 6, 16, 30, 41, 12, 17, 0)
s = 79: (0, 2, 22, 4, 64, 5, 13, 30, 30, 15, 14, 0)
s = 80: (0, 2, 15, 6, 45, 5, 29, 40, 33, 20, 21, 0)
s = 81: (0, 3, 20, 5, 62, 3, 12, 25, 22, 16, 17, 0)
s = 82: (0, 2, 19, 5, 54, 6, 26, 39, 36, 8, 13, 0)
s = 83: (0, 3, 23, 7, 43, 4, 14, 37, 28, 20, 12, 0)
s = 84: (0, 2, 22, 4, 44, 3, 20, 35, 34, 9, 27, 0)
s = 85: (0, 3, 14, 6, 64, 6, 17, 27, 33, 17, 14, 0)
s = 86: (0, 3, 32, 5, 41, 7, 17, 28, 37, 13, 17, 0)
s = 87: (0, 4, 16, 4, 44, 6, 11, 41, 18, 11, 13, 0)
s = 88: (0, 3, 27, 3, 68, 5, 15, 26, 15, 14, 21, 0)
s = 89: (0, 5, 23, 6, 47, 4, 13, 36, 22, 17, 12, 0)
s = 90: (0, 3, 23, 5, 55, 6, 22, 30, 25, 11, 12, 0)
s = 91: (0, 2, 23, 5, 51, 4, 16, 43, 50, 13, 12, 0)
s = 92: (0, 3, 31, 5, 40, 7, 11, 33, 28, 12, 21, 0)
s = 93: (0, 5, 16, 5, 46, 7, 20, 29, 32, 19, 27, 0)
s = 94: (0, 4, 12, 5, 65, 4, 14, 43, 19, 16, 12, 0)
s = 95: (0, 3, 17, 7, 67, 4, 16, 25, 18, 18, 16, 0)
s = 96: (0, 3, 19, 7, 72, 4, 16, 31, 18, 14, 18, 0)
s = 97: (0, 3, 17, 9, 78, 5, 10, 25, 22, 11, 14, 0)
s = 98: (0, 4, 20, 3, 52, 6, 21, 24, 21, 23, 14, 0)
s = 99: (0, 3, 19, 4, 69, 7, 13, 44, 44, 14, 13, 0)
s = 100: (0, 3, 12, 4, 52, 4, 11, 23, 25, 12, 13, 0)
s = 101: (0, 3, 28, 6, 45, 4, 15, 41, 44, 11, 16, 0)
s = 102: (0, 3, 33, 7, 56, 5, 13, 30, 33, 12, 12, 0)
s = 103: (0, 3, 13, 4, 59, 4, 18, 27, 25, 8, 30, 0)
s = 104: (0, 4, 23, 3, 53, 4, 11, 48, 24, 15, 23, 0)
s = 105: (0, 4, 14, 3, 62, 5, 13, 32, 22, 18, 13, 0)
s = 106: (0, 3, 17, 5, 46, 7, 14, 27, 38, 13, 26, 0)
s = 107: (0, 3, 16, 5, 34, 3, 18, 36, 33, 11, 11, 0)
s = 108: (0, 3, 18, 5, 81, 4, 21, 39, 17, 14, 14, 0)
s = 109: (0, 4, 32, 3, 52, 5, 14, 39, 36, 20, 24, 0)
s = 110: (0, 4, 23, 4, 48, 5, 16, 29, 20, 13, 11, 0)
s = 111: (0, 5, 27, 5, 93, 6, 15, 21, 25, 11, 13, 0)
s = 112: (0, 4, 19, 3, 33, 4, 19, 28, 27, 14, 16, 0)
s = 113: (0, 3, 31, 5, 45, 4, 16, 29, 29, 9, 17, 0)
s = 114: (0, 4, 12, 6, 82, 4, 16, 21, 25, 11, 14, 0)
s = 115: (0, 3, 17, 8, 71, 5, 14, 31, 44, 9, 20, 0)
s = 116: (0, 3, 33, 7, 71, 7, 12, 24, 24, 14, 15, 0)
s = 117: (0, 2, 27, 8, 41, 5, 15, 32, 33, 18, 13, 0)
s = 118: (0, 4, 19, 4, 51, 9, 16, 26, 17, 8, 19, 0)
s = 119: (0, 3, 19, 7, 70, 5, 11, 30, 26, 9, 23, 0)
s = 120: (0, 4, 22, 6, 64, 4, 11, 22, 30, 11, 10, 0)
s = 121: (0, 4, 16, 3, 89, 6, 20, 47, 39, 9, 14, 0)
s = 122: (0, 3, 19, 3, 56, 7, 14, 42, 41, 11, 20, 0)
s = 123: (0, 3, 16, 4, 52, 6, 17, 21, 26, 13, 12, 0)
s = 124: (0, 3, 20, 3, 92, 4, 10, 53, 30, 10, 19, 0)
s = 125: (0, 3, 22, 5, 35, 6, 15, 41, 31, 13, 17, 0)
s = 126: (0, 4, 24, 4, 68, 5, 12, 45, 22, 13, 20, 0)
s = 127: (0, 3, 17, 4, 63, 4, 11, 38, 28, 16, 27, 0)
s = 128: (0, 3, 21, 5, 57, 8, 16, 32, 27, 18, 20, 0)
s = 129: (0, 4, 21, 3, 32, 6, 25, 23, 16, 17, 15, 0)
s = 130: (0, 3, 29, 5, 52, 4, 14, 42, 22, 13, 11, 0)
s = 131: (0, 4, 28, 8, 83, 5, 12, 38, 23, 20, 26, 0)
s = 132: (0, 5, 17, 5, 40, 3, 15, 40, 33, 12, 16, 0)
s = 133: (0, 4, 22, 5, 39, 6, 16, 34, 26, 11, 9, 0)
s = 134: (0, 6, 25, 7, 34, 8, 17, 39, 35, 11, 22, 0)
s = 135: (0, 3, 17, 4, 59, 4, 13, 25, 26, 14, 21, 0)
s = 136: (0, 3, 26, 6, 58, 6, 12, 32, 42, 8, 12, 0)
s = 137: (0, 4, 18, 8, 100, 6, 13, 40, 29, 14, 11, 0)
s = 138: (0, 3, 17, 5, 90, 5, 11, 50, 22, 14, 20, 0)
s = 139: (0, 4, 11, 5, 71, 5, 16, 48, 34, 9, 21, 0)
s = 140: (0, 5, 23, 5, 43, 4, 12, 41, 23, 7, 12, 0)
s = 141: (0, 4, 29, 5, 51, 4, 15, 26, 55, 15, 20, 0)
s = 142: (0, 5, 28, 5, 65, 4, 10, 54, 39, 11, 12, 0)
s = 143: (0, 3, 36, 9, 51, 8, 11, 25, 28, 9, 12, 0)
s = 144: (0, 3, 18, 8, 58, 5, 14, 34, 30, 12, 19, 0)
s = 145: (0, 3, 18, 7, 80, 4, 11, 33, 26, 14, 12, 0)
s = 146: (0, 2, 16, 6, 46, 4, 25, 38, 20, 21, 12, 0)
s = 147: (0, 4, 19, 9, 83, 4, 15, 40, 39, 9, 19, 0)
s = 148: (0, 4, 29, 6, 48, 5, 17, 60, 34, 20, 12, 0)
s = 149: (0, 3, 19, 6, 41, 6, 14, 39, 44, 10, 13, 0)
s = 150: (0, 4, 32, 5, 55, 7, 10, 46, 33, 9, 10, 0)
s = 151: (0, 3, 17, 7, 42, 4, 17, 39, 32, 11, 21, 0)
s = 152: (0, 3, 26, 5, 78, 4, 15, 41, 31, 9, 14, 0)
s = 153: (0, 2, 20, 5, 81, 4, 12, 29, 28, 12, 11, 0)
s = 154: (0, 3, 18, 6, 44, 5, 13, 19, 28, 14, 16, 0)
s = 155: (0, 4, 29, 3, 74, 6, 16, 32, 46, 17, 20, 0)
s = 156: (0, 3, 19, 5, 34, 6, 13, 24, 26, 10, 19, 0)
s = 157: (0, 2, 16, 5, 72, 5, 11, 39, 27, 12, 11, 0)
s = 158: (0, 4, 25, 4, 45, 7, 23, 23, 29, 14, 15, 0)
s = 159: (0, 3, 23, 5, 62, 9, 18, 31, 23, 9, 25, 0)
s = 160: (0, 3, 20, 7, 70, 6, 14, 21, 30, 9, 12, 0)
s = 161: (0, 3, 15, 4, 41, 6, 13, 28, 35, 9, 24, 0)
s = 162: (0, 2, 15, 5, 47, 5, 9, 36, 30, 13, 13, 0)
s = 163: (0, 3, 16, 3, 43, 6, 12, 34, 21, 15, 10, 0)
s = 164: (0, 3, 27, 3, 75, 4, 11, 46, 21, 15, 12, 0)
s = 165: (0, 5, 22, 4, 59, 9, 9, 44, 30, 12, 12, 0)
s = 166: (0, 3, 16, 5, 66, 5, 9, 24, 33, 14, 18, 0)
s = 167: (0, 4, 25, 5, 46, 7, 16, 34, 20, 13, 14, 0)
s = 168: (0, 4, 12, 6, 96, 6, 24, 26, 22, 14, 13, 0)
s = 169: (0, 5, 24, 6, 58, 4, 13, 36, 21, 14, 17, 0)
s = 170: (0, 4, 20, 5, 74, 6, 15, 50, 24, 14, 19, 0)
s = 171: (0, 2, 13, 6, 44, 7, 13, 32, 21, 20, 12, 0)
s = 172: (0, 4, 19, 8, 43, 4, 22, 44, 36, 14, 21, 0)
s = 173: (0, 2, 31, 4, 44, 4, 9, 44, 39, 8, 13, 0)
s = 174: (0, 3, 22, 5, 44, 4, 13, 28, 32, 7, 19, 0)
s = 175: (0, 4, 27, 10, 61, 5, 15, 46, 21, 16, 18, 0)
s = 176: (0, 3, 27, 7, 46, 8, 17, 32, 24, 12, 13, 0)
s = 177: (0, 4, 28, 6, 37, 5, 17, 22, 26, 13, 11, 0)
s = 178: (0, 5, 17, 4, 86, 6, 11, 28, 36, 13, 16, 0)
s = 179: (0, 3, 38, 6, 66, 6, 14, 37, 33, 18, 13, 0)
s = 180: (0, 4, 35, 9, 35, 7, 11, 26, 24, 7, 17, 0)
s = 181: (0, 4, 13, 5, 49, 5, 13, 22, 29, 13, 18, 0)
s = 182: (0, 5, 22, 5, 75, 5, 11, 47, 21, 19, 20, 0)
s = 183: (0, 3, 12, 6, 40, 5, 14, 44, 19, 8, 13, 0)
s = 184: (0, 3, 17, 5, 47, 9, 16, 28, 34, 11, 20, 0)
s = 185: (0, 2, 19, 4, 35, 7, 12, 31, 25, 14, 18, 0)
s = 186: (0, 3, 32, 6, 59, 6, 14, 32, 17, 12, 23, 0)
s = 187: (0, 5, 11, 5, 69, 4, 19, 35, 22, 12, 25, 0)
s = 188: (0, 3, 18, 6, 60, 4, 13, 33, 35, 9, 18, 0)
s = 189: (0, 3, 14, 7, 46, 5, 13, 58, 22, 21, 16, 0)
s = 190: (0, 4, 26, 4, 47, 3, 14, 28, 33, 9, 25, 0)
s = 191: (0, 3, 27, 6, 56, 8, 21, 45, 32, 16, 16, 0)
s = 192: (0, 4, 24, 4, 64, 7, 16, 44, 24, 10, 12, 0)
s = 193: (0, 4, 28, 4, 49, 8, 21, 32, 46, 16, 14, 0)
s = 194: (0, 3, 19, 4, 45, 7, 13, 22, 38, 11, 24, 0)
s = 195: (0, 4, 25, 5, 48, 5, 25, 24, 18, 13, 14, 0)
s = 196: (0, 3, 30, 7, 59, 5, 12, 34, 37, 10, 12, 0)
s = 197: (0, 3, 19, 5, 45, 5, 16, 33, 30, 10, 17, 0)
s = 198: (0, 3, 16, 6, 33, 3, 17, 43, 21, 10, 27, 0)
s = 199: (0, 3, 16, 5, 47, 5, 13, 51, 21, 12, 19, 0)
s = 200: (0, 3, 18, 9, 41, 8, 11, 36, 33, 11, 18, 0)
------------------------------------------------------------------------
RESOURCE k = 2
s = 1: (0, 0, 43, 0, 26, 0, 31, 60, 31, 0, 0, 0)
s = 2: (0, 0, 39, 0, 20, 0, 32, 39, 31, 0, 0, 0)
s = 3: (0, 0, 66, 0, 17, 0, 18, 43, 29, 0, 0, 0)
s = 4: (0, 0, 45, 0, 22, 0, 24, 52, 26, 0, 0, 0)
s = 5: (0, 0, 64, 0, 31, 0, 15, 40, 26, 0, 0, 0)
s = 6: (0, 0, 32, 0, 18, 0, 41, 33, 29, 0, 0, 0)
s = 7: (0, 0, 43, 0, 30, 0, 24, 81, 28, 0, 0, 0)
s = 8: (0, 0, 33, 0, 18, 0, 15, 43, 20, 0, 0, 0)
s = 9: (0, 0, 39, 0, 19, 0, 22, 33, 37, 0, 0, 0)
s = 10: (0, 0, 40, 0, 36, 0, 20, 47, 19, 0, 0, 0)
s = 11: (0, 0, 52, 0, 31, 0, 20, 47, 43, 0, 0, 0)
s = 12: (0, 0, 33, 0, 16, 0, 23, 57, 33, 0, 0, 0)
s = 13: (0, 0, 42, 0, 21, 0, 23, 52, 28, 0, 0, 0)
s = 14: (0, 0, 36, 0, 26, 0, 21, 73, 38, 0, 0, 0)
s = 15: (0, 0, 36, 0, 27, 0, 24, 29, 38, 0, 0, 0)
s = 16: (0, 0, 55, 0, 37, 0, 16, 40, 33, 0, 0, 0)
s = 17: (0, 0, 26, 0, 35, 0, 21, 29, 31, 0, 0, 0)
s = 18: (0, 0, 30, 0, 30, 0, 22, 39, 27, 0, 0, 0)
s = 19: (0, 0, 58, 0, 23, 0, 18, 57, 18, 0, 0, 0)
s = 20: (0, 0, 53, 0, 18, 0, 18, 43, 27, 0, 0, 0)
s = 21: (0, 0, 27, 0, 32, 0, 37, 60, 30, 0, 0, 0)
s = 22: (0, 0, 33, 0, 21, 0, 18, 41, 38, 0, 0, 0)
s = 23: (0, 0, 44, 0, 17, 0, 28, 45, 24, 0, 0, 0)
s = 24: (0, 0, 33, 0, 29, 0, 19, 63, 27, 0, 0, 0)
s = 25: (0, 0, 38, 0, 19, 0, 19, 61, 21, 0, 0, 0)
s = 26: (0, 0, 31, 0, 35, 0, 37, 35, 29, 0, 0, 0)
s = 27: (0, 0, 37, 0, 25, 0, 25, 40, 29, 0, 0, 0)
s = 28: (0, 0, 53, 0, 15, 0, 16, 52, 28, 0, 0, 0)
s = 29: (0, 0, 65, 0, 16, 0, 18, 56, 21, 0, 0, 0)
s = 30: (0, 0, 41, 0, 14, 0, 29, 75, 28, 0, 0, 0)
s = 31: (0, 0, 54, 0, 32, 0, 19, 60, 17, 0, 0, 0)
s = 32: (0, 0, 32, 0, 30, 0, 20, 51, 25, 0, 0, 0)
s = 33: (0, 0, 33, 0, 20, 0, 14, 62, 30, 0, 0, 0)
s = 34: (0, 0, 66, 0, 30, 0, 29, 49, 25, 0, 0, 0)
s = 35: (0, 0, 35, 0, 20, 0, 32, 44, 39, 0, 0, 0)
s = 36: (0, 0, 42, 0, 28, 0, 16, 58, 33, 0, 0, 0)
s = 37: (0, 0, 25, 0, 20, 0, 23, 45, 30, 0, 0, 0)
s = 38: (0, 0, 48, 0, 13, 0, 21, 44, 21, 0, 0, 0)
s = 39: (0, 0, 42, 0, 19, 0, 20, 44, 24, 0, 0, 0)
s = 40: (0, 0, 26, 0, 33, 0, 32, 32, 34, 0, 0, 0)
s = 41: (0, 0, 59, 0, 19, 0, 22, 54, 29, 0, 0, 0)
s = 42: (0, 0, 28, 0, 19, 0, 20, 66, 19, 0, 0, 0)
s = 43: (0, 0, 27, 0, 13, 0, 20, 38, 27, 0, 0, 0)
s = 44: (0, 0, 47, 0, 21, 0, 18, 54, 20, 0, 0, 0)
s = 45: (0, 0, 32, 0, 23, 0, 21, 71, 23, 0, 0, 0)
s = 46: (0, 0, 33, 0, 17, 0, 30, 62, 29, 0, 0, 0)
s = 47: (0, 0, 29, 0, 21, 0, 21, 49, 21, 0, 0, 0)
s = 48: (0, 0, 38, 0, 20, 0, 27, 41, 38, 0, 0, 0)
s = 49: (0, 0, 45, 0, 17, 0, 29, 56, 24, 0, 0, 0)
s = 50: (0, 0, 35, 0, 23, 0, 31, 40, 26, 0, 0, 0)
s = 51: (0, 0, 50, 0, 16, 0, 20, 39, 32, 0, 0, 0)
s = 52: (0, 0, 36, 0, 30, 0, 35, 60, 23, 0, 0, 0)
s = 53: (0, 0, 41, 0, 36, 0, 28, 60, 35, 0, 0, 0)
s = 54: (0, 0, 24, 0, 31, 0, 24, 55, 27, 0, 0, 0)
s = 55: (0, 0, 65, 0, 23, 0, 25, 64, 31, 0, 0, 0)
s = 56: (0, 0, 65, 0, 28, 0, 25, 55, 19, 0, 0, 0)
s = 57: (0, 0, 71, 0, 25, 0, 14, 56, 40, 0, 0, 0)
s = 58: (0, 0, 64, 0, 27, 0, 34, 32, 24, 0, 0, 0)
s = 59: (0, 0, 74, 0, 23, 0, 37, 52, 37, 0, 0, 0)
s = 60: (0, 0, 80, 0, 25, 0, 23, 67, 31, 0, 0, 0)
s = 61: (0, 0, 32, 0, 28, 0, 23, 41, 26, 0, 0, 0)
s = 62: (0, 0, 49, 0, 27, 0, 38, 43, 37, 0, 0, 0)
s = 63: (0, 0, 44, 0, 21, 0, 41, 57, 21, 0, 0, 0)
s = 64: (0, 0, 57, 0, 32, 0, 18, 43, 24, 0, 0, 0)
s = 65: (0, 0, 43, 0, 20, 0, 35, 60, 31, 0, 0, 0)
s = 66: (0, 0, 45, 0, 20, 0, 20, 46, 31, 0, 0, 0)
s = 67: (0, 0, 48, 0, 18, 0, 23, 45, 36, 0, 0, 0)
s = 68: (0, 0, 41, 0, 29, 0, 16, 28, 26, 0, 0, 0)
s = 69: (0, 0, 45, 0, 30, 0, 21, 55, 27, 0, 0, 0)
s = 70: (0, 0, 80, 0, 23, 0, 19, 48, 32, 0, 0, 0)
s = 71: (0, 0, 36, 0, 28, 0, 34, 52, 31, 0, 0, 0)
s = 72: (0, 0, 38, 0, 17, 0, 31, 31, 30, 0, 0, 0)
s = 73: (0, 0, 34, 0, 28, 0, 27, 59, 33, 0, 0, 0)
s = 74: (0, 0, 30, 0, 23, 0, 15, 56, 42, 0, 0, 0)
s = 75: (0, 0, 65, 0, 41, 0, 25, 44, 19, 0, 0, 0)
s = 76: (0, 0, 29, 0, 19, 0, 27, 46, 27, 0, 0, 0)
s = 77: (0, 0, 49, 0, 20, 0, 28, 49, 23, 0, 0, 0)
s = 78: (0, 0, 44, 0, 20, 0, 25, 42, 46, 0, 0, 0)
s = 79: (0, 0, 50, 0, 28, 0, 20, 42, 33, 0, 0, 0)
s = 80: (0, 0, 32, 0, 20, 0, 46, 56, 37, 0, 0, 0)
s = 81: (0, 0, 44, 0, 27, 0, 19, 35, 25, 0, 0, 0)
s = 82: (0, 0, 41, 0, 24, 0, 42, 54, 40, 0, 0, 0)
s = 83: (0, 0, 52, 0, 19, 0, 22, 52, 31, 0, 0, 0)
s = 84: (0, 0, 49, 0, 19, 0, 31, 48, 38, 0, 0, 0)
s = 85: (0, 0, 31, 0, 28, 0, 27, 37, 36, 0, 0, 0)
s = 86: (0, 0, 71, 0, 18, 0, 27, 40, 41, 0, 0, 0)
s = 87: (0, 0, 35, 0, 19, 0, 17, 57, 20, 0, 0, 0)
s = 88: (0, 0, 59, 0, 29, 0, 24, 36, 17, 0, 0, 0)
s = 89: (0, 0, 52, 0, 20, 0, 20, 50, 24, 0, 0, 0)
s = 90: (0, 0, 51, 0, 24, 0, 35, 42, 28, 0, 0, 0)
s = 91: (0, 0, 51, 0, 22, 0, 26, 60, 56, 0, 0, 0)
s = 92: (0, 0, 69, 0, 18, 0, 17, 46, 31, 0, 0, 0)
s = 93: (0, 0, 36, 0, 20, 0, 31, 40, 35, 0, 0, 0)
s = 94: (0, 0, 26, 0, 28, 0, 21, 60, 21, 0, 0, 0)
s = 95: (0, 0, 38, 0, 29, 0, 26, 34, 19, 0, 0, 0)
s = 96: (0, 0, 43, 0, 31, 0, 26, 44, 20, 0, 0, 0)
s = 97: (0, 0, 37, 0, 34, 0, 15, 34, 24, 0, 0, 0)
s = 98: (0, 0, 44, 0, 23, 0, 34, 33, 24, 0, 0, 0)
s = 99: (0, 0, 41, 0, 30, 0, 20, 61, 48, 0, 0, 0)
s = 100: (0, 0, 26, 0, 23, 0, 17, 32, 28, 0, 0, 0)
s = 101: (0, 0, 62, 0, 20, 0, 24, 58, 49, 0, 0, 0)
s = 102: (0, 0, 75, 0, 24, 0, 21, 42, 37, 0, 0, 0)
s = 103: (0, 0, 29, 0, 26, 0, 29, 37, 27, 0, 0, 0)
s = 104: (0, 0, 52, 0, 23, 0, 18, 66, 27, 0, 0, 0)
s = 105: (0, 0, 31, 0, 27, 0, 20, 45, 25, 0, 0, 0)
s = 106: (0, 0, 37, 0, 20, 0, 23, 38, 43, 0, 0, 0)
s = 107: (0, 0, 35, 0, 15, 0, 29, 50, 37, 0, 0, 0)
s = 108: (0, 0, 40, 0, 35, 0, 33, 55, 19, 0, 0, 0)
s = 109: (0, 0, 71, 0, 23, 0, 22, 54, 40, 0, 0, 0)
s = 110: (0, 0, 51, 0, 21, 0, 26, 40, 22, 0, 0, 0)
s = 111: (0, 0, 59, 0, 40, 0, 23, 29, 28, 0, 0, 0)
s = 112: (0, 0, 41, 0, 14, 0, 30, 39, 30, 0, 0, 0)
s = 113: (0, 0, 69, 0, 20, 0, 25, 40, 32, 0, 0, 0)
s = 114: (0, 0, 27, 0, 36, 0, 25, 29, 27, 0, 0, 0)
s = 115: (0, 0, 38, 0, 31, 0, 22, 43, 49, 0, 0, 0)
s = 116: (0, 0, 73, 0, 31, 0, 20, 34, 27, 0, 0, 0)
s = 117: (0, 0, 60, 0, 18, 0, 23, 45, 37, 0, 0, 0)
s = 118: (0, 0, 41, 0, 22, 0, 26, 37, 19, 0, 0, 0)
s = 119: (0, 0, 41, 0, 30, 0, 17, 42, 29, 0, 0, 0)
s = 120: (0, 0, 50, 0, 28, 0, 18, 31, 34, 0, 0, 0)
s = 121: (0, 0, 36, 0, 39, 0, 31, 66, 43, 0, 0, 0)
s = 122: (0, 0, 42, 0, 24, 0, 23, 59, 46, 0, 0, 0)
s = 123: (0, 0, 35, 0, 23, 0, 27, 29, 29, 0, 0, 0)
s = 124: (0, 0, 43, 0, 40, 0, 16, 74, 33, 0, 0, 0)
s = 125: (0, 0, 50, 0, 15, 0, 24, 57, 34, 0, 0, 0)
s = 126: (0, 0, 53, 0, 30, 0, 19, 62, 25, 0, 0, 0)
s = 127: (0, 0, 38, 0, 27, 0, 17, 53, 31, 0, 0, 0)
s = 128: (0, 0, 47, 0, 25, 0, 26, 45, 30, 0, 0, 0)
s = 129: (0, 0, 47, 0, 14, 0, 39, 33, 18, 0, 0, 0)
s = 130: (0, 0, 64, 0, 23, 0, 22, 58, 25, 0, 0, 0)
s = 131: (0, 0, 62, 0, 36, 0, 19, 53, 25, 0, 0, 0)
s = 132: (0, 0, 39, 0, 17, 0, 23, 56, 36, 0, 0, 0)
s = 133: (0, 0, 49, 0, 17, 0, 25, 47, 29, 0, 0, 0)
s = 134: (0, 0, 55, 0, 15, 0, 27, 55, 39, 0, 0, 0)
s = 135: (0, 0, 38, 0, 25, 0, 21, 35, 29, 0, 0, 0)
s = 136: (0, 0, 58, 0, 25, 0, 19, 44, 46, 0, 0, 0)
s = 137: (0, 0, 39, 0, 43, 0, 21, 56, 32, 0, 0, 0)
s = 138: (0, 0, 38, 0, 39, 0, 17, 70, 24, 0, 0, 0)
s = 139: (0, 0, 25, 0, 31, 0, 26, 67, 37, 0, 0, 0)
s = 140: (0, 0, 50, 0, 19, 0, 19, 57, 25, 0, 0, 0)
s = 141: (0, 0, 65, 0, 22, 0, 24, 36, 61, 0, 0, 0)
s = 142: (0, 0, 62, 0, 28, 0, 16, 75, 43, 0, 0, 0)
s = 143: (0, 0, 80, 0, 22, 0, 17, 34, 31, 0, 0, 0)
s = 144: (0, 0, 40, 0, 25, 0, 23, 48, 33, 0, 0, 0)
s = 145: (0, 0, 40, 0, 34, 0, 17, 46, 29, 0, 0, 0)
s = 146: (0, 0, 34, 0, 20, 0, 40, 52, 22, 0, 0, 0)
s = 147: (0, 0, 43, 0, 36, 0, 24, 55, 44, 0, 0, 0)
s = 148: (0, 0, 64, 0, 21, 0, 27, 84, 38, 0, 0, 0)
s = 149: (0, 0, 43, 0, 18, 0, 23, 54, 49, 0, 0, 0)
s = 150: (0, 0, 72, 0, 24, 0, 15, 64, 37, 0, 0, 0)
s = 151: (0, 0, 38, 0, 18, 0, 26, 54, 35, 0, 0, 0)
s = 152: (0, 0, 57, 0, 34, 0, 23, 57, 34, 0, 0, 0)
s = 153: (0, 0, 44, 0, 35, 0, 19, 40, 31, 0, 0, 0)
s = 154: (0, 0, 41, 0, 19, 0, 21, 26, 31, 0, 0, 0)
s = 155: (0, 0, 65, 0, 32, 0, 25, 44, 51, 0, 0, 0)
s = 156: (0, 0, 42, 0, 15, 0, 20, 34, 29, 0, 0, 0)
s = 157: (0, 0, 35, 0, 31, 0, 17, 55, 30, 0, 0, 0)
s = 158: (0, 0, 56, 0, 20, 0, 36, 31, 33, 0, 0, 0)
s = 159: (0, 0, 51, 0, 27, 0, 29, 44, 26, 0, 0, 0)
s = 160: (0, 0, 45, 0, 30, 0, 23, 29, 33, 0, 0, 0)
s = 161: (0, 0, 34, 0, 18, 0, 21, 39, 39, 0, 0, 0)
s = 162: (0, 0, 33, 0, 20, 0, 14, 51, 34, 0, 0, 0)
s = 163: (0, 0, 35, 0, 19, 0, 19, 47, 24, 0, 0, 0)
s = 164: (0, 0, 60, 0, 32, 0, 18, 65, 23, 0, 0, 0)
s = 165: (0, 0, 49, 0, 26, 0, 14, 61, 34, 0, 0, 0)
s = 166: (0, 0, 36, 0, 29, 0, 13, 33, 36, 0, 0, 0)
s = 167: (0, 0, 55, 0, 20, 0, 25, 47, 22, 0, 0, 0)
s = 168: (0, 0, 26, 0, 42, 0, 38, 37, 25, 0, 0, 0)
s = 169: (0, 0, 54, 0, 25, 0, 20, 51, 23, 0, 0, 0)
s = 170: (0, 0, 44, 0, 32, 0, 23, 70, 26, 0, 0, 0)
s = 171: (0, 0, 30, 0, 19, 0, 20, 44, 24, 0, 0, 0)
s = 172: (0, 0, 42, 0, 19, 0, 36, 61, 40, 0, 0, 0)
s = 173: (0, 0, 69, 0, 19, 0, 14, 61, 44, 0, 0, 0)
s = 174: (0, 0, 50, 0, 19, 0, 20, 39, 36, 0, 0, 0)
s = 175: (0, 0, 60, 0, 26, 0, 24, 65, 23, 0, 0, 0)
s = 176: (0, 0, 61, 0, 20, 0, 26, 45, 27, 0, 0, 0)
s = 177: (0, 0, 62, 0, 16, 0, 27, 30, 29, 0, 0, 0)
s = 178: (0, 0, 38, 0, 37, 0, 17, 38, 39, 0, 0, 0)
s = 179: (0, 0, 84, 0, 28, 0, 22, 51, 37, 0, 0, 0)
s = 180: (0, 0, 78, 0, 15, 0, 18, 36, 27, 0, 0, 0)
s = 181: (0, 0, 28, 0, 21, 0, 20, 30, 32, 0, 0, 0)
s = 182: (0, 0, 48, 0, 33, 0, 17, 66, 24, 0, 0, 0)
s = 183: (0, 0, 27, 0, 17, 0, 22, 62, 21, 0, 0, 0)
s = 184: (0, 0, 38, 0, 21, 0, 26, 39, 37, 0, 0, 0)
s = 185: (0, 0, 42, 0, 15, 0, 20, 43, 27, 0, 0, 0)
s = 186: (0, 0, 72, 0, 26, 0, 21, 44, 19, 0, 0, 0)
s = 187: (0, 0, 24, 0, 30, 0, 31, 49, 24, 0, 0, 0)
s = 188: (0, 0, 39, 0, 26, 0, 21, 46, 39, 0, 0, 0)
s = 189: (0, 0, 31, 0, 20, 0, 20, 81, 24, 0, 0, 0)
s = 190: (0, 0, 57, 0, 20, 0, 22, 39, 36, 0, 0, 0)
s = 191: (0, 0, 61, 0, 24, 0, 34, 63, 36, 0, 0, 0)
s = 192: (0, 0, 53, 0, 28, 0, 25, 61, 27, 0, 0, 0)
s = 193: (0, 0, 62, 0, 21, 0, 33, 44, 51, 0, 0, 0)
s = 194: (0, 0, 42, 0, 19, 0, 21, 31, 42, 0, 0, 0)
s = 195: (0, 0, 55, 0, 21, 0, 40, 33, 20, 0, 0, 0)
s = 196: (0, 0, 68, 0, 26, 0, 19, 47, 41, 0, 0, 0)
s = 197: (0, 0, 43, 0, 20, 0, 26, 45, 33, 0, 0, 0)
s = 198: (0, 0, 36, 0, 15, 0, 26, 61, 23, 0, 0, 0)
s = 199: (0, 0, 36, 0, 21, 0, 21, 71, 24, 0, 0, 0)
s = 200: (0, 0, 40, 0, 18, 0, 18, 50, 37, 0, 0, 0)
------------------------------------------------------------------------
RESOURCE k = 3
s = 1: (0, 6, 0, 8, 0, 7, 0, 0, 0, 28, 19, 0)
s = 2: (0, 7, 0, 9, 0, 6, 0, 0, 0, 29, 25, 0)
s = 3: (0, 6, 0, 6, 0, 6, 0, 0, 0, 42, 36, 0)
s = 4: (0, 6, 0, 15, 0, 6, 0, 0, 0, 18, 41, 0)
s = 5: (0, 7, 0, 11, 0, 9, 0, 0, 0, 54, 22, 0)
s = 6: (0, 4, 0, 10, 0, 5, 0, 0, 0, 27, 33, 0)
s = 7: (0, 4, 0, 12, 0, 7, 0, 0, 0, 53, 48, 0)
s = 8: (0, 4, 0, 8, 0, 11, 0, 0, 0, 38, 38, 0)
s = 9: (0, 6, 0, 7, 0, 4, 0, 0, 0, 31, 43, 0)
s = 10: (0, 6, 0, 11, 0, 7, 0, 0, 0, 42, 30, 0)
s = 11: (0, 6, 0, 6, 0, 11, 0, 0, 0, 25, 42, 0)
s = 12: (0, 7, 0, 8, 0, 7, 0, 0, 0, 31, 34, 0)
s = 13: (0, 5, 0, 11, 0, 9, 0, 0, 0, 32, 50, 0)
s = 14: (0, 7, 0, 11, 0, 6, 0, 0, 0, 20, 21, 0)
s = 15: (0, 6, 0, 11, 0, 6, 0, 0, 0, 35, 27, 0)
s = 16: (0, 6, 0, 16, 0, 6, 0, 0, 0, 30, 53, 0)
s = 17: (0, 6, 0, 6, 0, 8, 0, 0, 0, 43, 48, 0)
s = 18: (0, 7, 0, 10, 0, 7, 0, 0, 0, 19, 37, 0)
s = 19: (0, 6, 0, 9, 0, 7, 0, 0, 0, 51, 35, 0)
s = 20: (0, 5, 0, 10, 0, 9, 0, 0, 0, 21, 39, 0)
s = 21: (0, 4, 0, 8, 0, 6, 0, 0, 0, 35, 26, 0)
s = 22: (0, 8, 0, 14, 0, 7, 0, 0, 0, 28, 34, 0)
s = 23: (0, 6, 0, 9, 0, 5, 0, 0, 0, 32, 29, 0)
s = 24: (0, 5, 0, 11, 0, 7, 0, 0, 0, 31, 25, 0)
s = 25: (0, 4, 0, 12, 0, 6, 0, 0, 0, 20, 41, 0)
s = 26: (0, 4, 0, 9, 0, 6, 0, 0, 0, 29, 34, 0)
s = 27: (0, 6, 0, 8, 0, 4, 0, 0, 0, 47, 44, 0)
s = 28: (0, 6, 0, 11, 0, 8, 0, 0, 0, 22, 41, 0)
s = 29: (0, 6, 0, 8, 0, 5, 0, 0, 0, 24, 41, 0)
s = 30: (0, 4, 0, 12, 0, 8, 0, 0, 0, 49, 21, 0)
s = 31: (0, 7, 0, 15, 0, 5, 0, 0, 0, 30, 34, 0)
s = 32: (0, 6, 0, 10, 0, 6, 0, 0, 0, 34, 32, 0)
s = 33: (0, 5, 0, 14, 0, 5, 0, 0, 0, 27, 34, 0)
s = 34: (0, 5, 0, 6, 0, 6, 0, 0, 0, 38, 39, 0)
s = 35: (0, 4, 0, 7, 0, 8, 0, 0, 0, 36, 18, 0)
s = 36: (0, 4, 0, 7, 0, 7, 0, 0, 0, 36, 24, 0)
s = 37: (0, 7, 0, 9, 0, 8, 0, 0, 0, 21, 24, 0)
s = 38: (0, 4, 0, 14, 0, 7, 0, 0, 0, 32, 51, 0)
s = 39: (0, 5, 0, 17, 0, 5, 0, 0, 0, 37, 39, 0)
s = 40: (0, 5, 0, 6, 0, 5, 0, 0, 0, 32, 27, 0)
s = 41: (0, 5, 0, 10, 0, 8, 0, 0, 0, 25, 32, 0)
s = 42: (0, 5, 0, 11, 0, 6, 0, 0, 0, 20, 34, 0)
s = 43: (0, 5, 0, 8, 0, 8, 0, 0, 0, 25, 39, 0)
s = 44: (0, 4, 0, 10, 0, 7, 0, 0, 0, 32, 50, 0)
s = 45: (0, 6, 0, 8, 0, 6, 0, 0, 0, 37, 48, 0)
s = 46: (0, 5, 0, 9, 0, 5, 0, 0, 0, 29, 34, 0)
s = 47: (0, 7, 0, 7, 0, 9, 0, 0, 0, 31, 21, 0)
s = 48: (0, 5, 0, 7, 0, 8, 0, 0, 0, 30, 48, 0)
s = 49: (0, 4, 0, 11, 0, 8, 0, 0, 0, 43, 33, 0)
s = 50: (0, 8, 0, 9, 0, 6, 0, 0, 0, 36, 17, 0)
s = 51: (0, 5, 0, 10, 0, 7, 0, 0, 0, 35, 39, 0)
s = 52: (0, 5, 0, 9, 0, 10, 0, 0, 0, 27, 17, 0)
s = 53: (0, 9, 0, 11, 0, 9, 0, 0, 0, 23, 28, 0)
s = 54: (0, 3, 0, 7, 0, 6, 0, 0, 0, 24, 31, 0)
s = 55: (0, 5, 0, 13, 0, 4, 0, 0, 0, 20, 37, 0)
s = 56: (0, 7, 0, 8, 0, 7, 0, 0, 0, 28, 27, 0)
s = 57: (0, 5, 0, 8, 0, 6, 0, 0, 0, 46, 27, 0)
s = 58: (0, 5, 0, 10, 0, 4, 0, 0, 0, 33, 51, 0)
s = 59: (0, 4, 0, 6, 0, 6, 0, 0, 0, 33, 33, 0)
s = 60: (0, 4, 0, 9, 0, 5, 0, 0, 0, 33, 32, 0)
s = 61: (0, 4, 0, 8, 0, 5, 0, 0, 0, 34, 32, 0)
s = 62: (0, 4, 0, 6, 0, 5, 0, 0, 0, 56, 23, 0)
s = 63: (0, 5, 0, 12, 0, 7, 0, 0, 0, 32, 26, 0)
s = 64: (0, 5, 0, 11, 0, 7, 0, 0, 0, 31, 29, 0)
s = 65: (0, 5, 0, 13, 0, 5, 0, 0, 0, 23, 19, 0)
s = 66: (0, 4, 0, 8, 0, 5, 0, 0, 0, 52, 28, 0)
s = 67: (0, 5, 0, 11, 0, 5, 0, 0, 0, 22, 45, 0)
s = 68: (0, 5, 0, 13, 0, 8, 0, 0, 0, 22, 36, 0)
s = 69: (0, 5, 0, 9, 0, 4, 0, 0, 0, 25, 33, 0)
s = 70: (0, 5, 0, 10, 0, 5, 0, 0, 0, 31, 22, 0)
s = 71: (0, 5, 0, 14, 0, 7, 0, 0, 0, 33, 23, 0)
s = 72: (0, 6, 0, 13, 0, 5, 0, 0, 0, 24, 40, 0)
s = 73: (0, 4, 0, 7, 0, 7, 0, 0, 0, 35, 40, 0)
s = 74: (0, 6, 0, 12, 0, 4, 0, 0, 0, 35, 19, 0)
s = 75: (0, 5, 0, 6, 0, 6, 0, 0, 0, 50, 32, 0)
s = 76: (0, 6, 0, 9, 0, 7, 0, 0, 0, 32, 37, 0)
s = 77: (0, 5, 0, 9, 0, 10, 0, 0, 0, 27, 47, 0)
s = 78: (0, 5, 0, 8, 0, 7, 0, 0, 0, 30, 33, 0)
s = 79: (0, 4, 0, 8, 0, 6, 0, 0, 0, 38, 28, 0)
s = 80: (0, 3, 0, 11, 0, 6, 0, 0, 0, 52, 42, 0)
s = 81: (0, 4, 0, 9, 0, 4, 0, 0, 0, 41, 34, 0)
s = 82: (0, 4, 0, 8, 0, 7, 0, 0, 0, 21, 25, 0)
s = 83: (0, 4, 0, 12, 0, 5, 0, 0, 0, 52, 24, 0)
s = 84: (0, 4, 0, 6, 0, 4, 0, 0, 0, 24, 54, 0)
s = 85: (0, 5, 0, 11, 0, 7, 0, 0, 0, 44, 27, 0)
s = 86: (0, 5, 0, 9, 0, 8, 0, 0, 0, 35, 34, 0)
s = 87: (0, 6, 0, 6, 0, 8, 0, 0, 0, 29, 25, 0)
s = 88: (0, 5, 0, 6, 0, 6, 0, 0, 0, 36, 41, 0)
s = 89: (0, 8, 0, 11, 0, 5, 0, 0, 0, 44, 24, 0)
s = 90: (0, 5, 0, 9, 0, 7, 0, 0, 0, 28, 24, 0)
s = 91: (0, 4, 0, 9, 0, 4, 0, 0, 0, 33, 23, 0)
s = 92: (0, 5, 0, 9, 0, 8, 0, 0, 0, 31, 42, 0)
s = 93: (0, 7, 0, 9, 0, 8, 0, 0, 0, 49, 53, 0)
s = 94: (0, 6, 0, 8, 0, 5, 0, 0, 0, 41, 23, 0)
s = 95: (0, 4, 0, 12, 0, 5, 0, 0, 0, 47, 32, 0)
s = 96: (0, 5, 0, 12, 0, 4, 0, 0, 0, 36, 36, 0)
s = 97: (0, 5, 0, 16, 0, 6, 0, 0, 0, 29, 28, 0)
s = 98: (0, 7, 0, 6, 0, 7, 0, 0, 0, 61, 27, 0)
s = 99: (0, 5, 0, 6, 0, 8, 0, 0, 0, 36, 26, 0)
s = 100: (0, 5, 0, 7, 0, 5, 0, 0, 0, 31, 26, 0)
s = 101: (0, 5, 0, 10, 0, 5, 0, 0, 0, 28, 31, 0)
s = 102: (0, 5, 0, 13, 0, 5, 0, 0, 0, 32, 23, 0)
s = 103: (0, 4, 0, 7, 0, 5, 0, 0, 0, 20, 60, 0)
s = 104: (0, 7, 0, 5, 0, 4, 0, 0, 0, 40, 46, 0)
s = 105: (0, 7, 0, 5, 0, 6, 0, 0, 0, 48, 25, 0)
s = 106: (0, 4, 0, 9, 0, 9, 0, 0, 0, 34, 52, 0)
s = 107: (0, 4, 0, 8, 0, 4, 0, 0, 0, 30, 21, 0)
s = 108: (0, 5, 0, 9, 0, 5, 0, 0, 0, 36, 27, 0)
s = 109: (0, 7, 0, 5, 0, 6, 0, 0, 0, 52, 48, 0)
s = 110: (0, 7, 0, 6, 0, 6, 0, 0, 0, 34, 22, 0)
s = 111: (0, 8, 0, 8, 0, 8, 0, 0, 0, 28, 26, 0)
s = 112: (0, 6, 0, 5, 0, 4, 0, 0, 0, 36, 32, 0)
s = 113: (0, 5, 0, 8, 0, 4, 0, 0, 0, 24, 34, 0)
s = 114: (0, 7, 0, 11, 0, 5, 0, 0, 0, 29, 28, 0)
s = 115: (0, 4, 0, 15, 0, 6, 0, 0, 0, 24, 39, 0)
s = 116: (0, 4, 0, 12, 0, 9, 0, 0, 0, 36, 29, 0)
s = 117: (0, 4, 0, 14, 0, 6, 0, 0, 0, 47, 25, 0)
s = 118: (0, 6, 0, 7, 0, 11, 0, 0, 0, 21, 38, 0)
s = 119: (0, 5, 0, 12, 0, 6, 0, 0, 0, 22, 45, 0)
s = 120: (0, 6, 0, 10, 0, 4, 0, 0, 0, 28, 19, 0)
s = 121: (0, 6, 0, 6, 0, 7, 0, 0, 0, 24, 27, 0)
s = 122: (0, 5, 0, 6, 0, 8, 0, 0, 0, 29, 40, 0)
s = 123: (0, 4, 0, 8, 0, 7, 0, 0, 0, 34, 24, 0)
s = 124: (0, 5, 0, 5, 0, 5, 0, 0, 0, 26, 38, 0)
s = 125: (0, 4, 0, 8, 0, 7, 0, 0, 0, 34, 34, 0)
s = 126: (0, 6, 0, 6, 0, 6, 0, 0, 0, 34, 40, 0)
s = 127: (0, 5, 0, 7, 0, 5, 0, 0, 0, 42, 53, 0)
s = 128: (0, 4, 0, 9, 0, 10, 0, 0, 0, 46, 39, 0)
s = 129: (0, 6, 0, 6, 0, 7, 0, 0, 0, 43, 29, 0)
s = 130: (0, 5, 0, 8, 0, 5, 0, 0, 0, 35, 22, 0)
s = 131: (0, 7, 0, 13, 0, 6, 0, 0, 0, 52, 52, 0)
s = 132: (0, 7, 0, 8, 0, 4, 0, 0, 0, 31, 32, 0)
s = 133: (0, 6, 0, 8, 0, 7, 0, 0, 0, 29, 18, 0)
s = 134: (0, 10, 0, 13, 0, 10, 0, 0, 0, 28, 44, 0)
s = 135: (0, 5, 0, 6, 0, 5, 0, 0, 0, 37, 41, 0)
s = 136: (0, 4, 0, 11, 0, 7, 0, 0, 0, 19, 24, 0)
s = 137: (0, 6, 0, 15, 0, 8, 0, 0, 0, 36, 21, 0)
s = 138: (0, 5, 0, 8, 0, 6, 0, 0, 0, 36, 40, 0)
s = 139: (0, 6, 0, 8, 0, 5, 0, 0, 0, 24, 41, 0)
s = 140: (0, 9, 0, 8, 0, 5, 0, 0, 0, 18, 23, 0)
s = 141: (0, 6, 0, 8, 0, 4, 0, 0, 0, 40, 39, 0)
s = 142: (0, 8, 0, 9, 0, 4, 0, 0, 0, 29, 23, 0)
s = 143: (0, 5, 0, 16, 0, 10, 0, 0, 0, 22, 23, 0)
s = 144: (0, 5, 0, 15, 0, 6, 0, 0, 0, 30, 38, 0)
s = 145: (0, 5, 0, 11, 0, 5, 0, 0, 0, 36, 23, 0)
s = 146: (0, 4, 0, 10, 0, 5, 0, 0, 0, 55, 24, 0)
s = 147: (0, 6, 0, 17, 0, 5, 0, 0, 0, 22, 37, 0)
s = 148: (0, 6, 0, 11, 0, 6, 0, 0, 0, 53, 23, 0)
s = 149: (0, 5, 0, 10, 0, 7, 0, 0, 0, 26, 25, 0)
s = 150: (0, 7, 0, 8, 0, 8, 0, 0, 0, 24, 19, 0)
s = 151: (0, 5, 0, 12, 0, 5, 0, 0, 0, 29, 41, 0)
s = 152: (0, 4, 0, 9, 0, 5, 0, 0, 0, 23, 27, 0)
s = 153: (0, 4, 0, 8, 0, 5, 0, 0, 0, 31, 22, 0)
s = 154: (0, 5, 0, 10, 0, 6, 0, 0, 0, 35, 31, 0)
s = 155: (0, 6, 0, 6, 0, 7, 0, 0, 0, 43, 40, 0)
s = 156: (0, 4, 0, 9, 0, 8, 0, 0, 0, 26, 38, 0)
s = 157: (0, 3, 0, 8, 0, 6, 0, 0, 0, 32, 21, 0)
s = 158: (0, 6, 0, 6, 0, 8, 0, 0, 0, 36, 30, 0)
s = 159: (0, 5, 0, 9, 0, 11, 0, 0, 0, 23, 49, 0)
s = 160: (0, 4, 0, 11, 0, 7, 0, 0, 0, 23, 23, 0)
s = 161: (0, 4, 0, 8, 0, 7, 0, 0, 0, 23, 47, 0)
s = 162: (0, 4, 0, 9, 0, 5, 0, 0, 0, 35, 25, 0)
s = 163: (0, 5, 0, 6, 0, 7, 0, 0, 0, 39, 19, 0)
s = 164: (0, 4, 0, 5, 0, 4, 0, 0, 0, 39, 24, 0)
s = 165: (0, 7, 0, 6, 0, 11, 0, 0, 0, 32, 24, 0)
s = 166: (0, 5, 0, 8, 0, 6, 0, 0, 0, 36, 36, 0)
s = 167: (0, 6, 0, 9, 0, 8, 0, 0, 0, 34, 27, 0)
s = 168: (0, 6, 0, 11, 0, 7, 0, 0, 0, 37, 25, 0)
s = 169: (0, 8, 0, 10, 0, 4, 0, 0, 0, 36, 34, 0)
s = 170: (0, 6, 0, 9, 0, 7, 0, 0, 0, 36, 38, 0)
s = 171: (0, 4, 0, 11, 0, 8, 0, 0, 0, 52, 24, 0)
s = 172: (0, 7, 0, 14, 0, 5, 0, 0, 0, 37, 42, 0)
s = 173: (0, 3, 0, 7, 0, 4, 0, 0, 0, 22, 26, 0)
s = 174: (0, 5, 0, 8, 0, 5, 0, 0, 0, 18, 37, 0)
s = 175: (0, 6, 0, 18, 0, 6, 0, 0, 0, 42, 35, 0)
s = 176: (0, 4, 0, 12, 0, 10, 0, 0, 0, 30, 26, 0)
s = 177: (0, 6, 0, 11, 0, 5, 0, 0, 0, 33, 21, 0)
s = 178: (0, 8, 0, 7, 0, 7, 0, 0, 0, 34, 31, 0)
s = 179: (0, 4, 0, 11, 0, 7, 0, 0, 0, 48, 26, 0)
s = 180: (0, 6, 0, 16, 0, 8, 0, 0, 0, 18, 34, 0)
s = 181: (0, 6, 0, 8, 0, 6, 0, 0, 0, 34, 36, 0)
s = 182: (0, 7, 0, 9, 0, 6, 0, 0, 0, 51, 39, 0)
s = 183: (0, 5, 0, 10, 0, 6, 0, 0, 0, 20, 25, 0)
s = 184: (0, 5, 0, 9, 0, 10, 0, 0, 0, 28, 40, 0)
s = 185: (0, 3, 0, 7, 0, 8, 0, 0, 0, 37, 36, 0)
s = 186: (0, 4, 0, 10, 0, 8, 0, 0, 0, 32, 45, 0)
s = 187: (0, 8, 0, 9, 0, 5, 0, 0, 0, 31, 50, 0)
s = 188: (0, 5, 0, 11, 0, 5, 0, 0, 0, 23, 35, 0)
s = 189: (0, 5, 0, 12, 0, 6, 0, 0, 0, 55, 31, 0)
s = 190: (0, 6, 0, 7, 0, 4, 0, 0, 0, 22, 50, 0)
s = 191: (0, 5, 0, 11, 0, 10, 0, 0, 0, 41, 31, 0)
s = 192: (0, 6, 0, 6, 0, 8, 0, 0, 0, 25, 23, 0)
s = 193: (0, 6, 0, 7, 0, 9, 0, 0, 0, 41, 28, 0)
s = 194: (0, 5, 0, 7, 0, 8, 0, 0, 0, 29, 48, 0)
s = 195: (0, 6, 0, 8, 0, 6, 0, 0, 0, 34, 27, 0)
s = 196: (0, 5, 0, 12, 0, 6, 0, 0, 0, 26, 24, 0)
s = 197: (0, 5, 0, 9, 0, 6, 0, 0, 0, 26, 33, 0)
s = 198: (0, 5, 0, 10, 0, 4, 0, 0, 0, 25, 54, 0)
s = 199: (0, 5, 0, 9, 0, 6, 0, 0, 0, 31, 37, 0)
s = 200: (0, 4, 0, 16, 0, 10, 0, 0, 0, 29, 36, 0)
************************************************************************
ES/LS-VALUES:
jobnr.   ES(i)    LS(i)
------------------------------------------------------------------------
  0        0        0
  1        0       78
  2        0       70
  3        0       57
  4        2       59
  5       16       78
  6       16       74
  7        2       68
  8        9       81
  9       17       80
 10       21       80
 11       28       88
************************************************************************
BIG-M-VALUES:
M1 = 58, M2 = 209
************************************************************************
